(set-logic ALL)
(declare-fun var0 () String)
(assert (str.in_re var0 (re.++ (re.union (re.+ (re.union (re.+ (re.union (str.to_re "00") (str.to_re "11"))) (re.+ (re.* (str.to_re "22"))))) (re.+ (re.union (re.* (re.* (str.to_re "333"))) (re.* (re.+ (str.to_re "444")))))) (re.+ (re.* (re.+ (re.union (re.* (str.to_re "55")) (re.* (str.to_re "666")))))))))
(assert (<= 15 (str.len var0)))
(check-sat)